outputs/case_415.model.txt
other_bank_guaranteed_or_accepted_short_term_note = False
other_bank_guaranteed_corporate_bond = False
security_type = 2
transferable_time_deposit_certificate = False
investment_prohibited_securities = False
stock = True
bond_conversion_right_certificate = False
security_underwritten_or_traded_by_other_broker = False
investment_relationship_approved_by_authority = False
security_maturity_years = 0
financial_bond = False
asset_backed_security = False
subordinated_financial_bond = False
new_equity_certificate = False
violation_of_investment_restrictions = False
violate_article_123_apply_74 = False
violate_article_74 = False
violate_article_89_2 = False
penalty = False
violate_article_115_1 = False